STAFF = {andre_lima, antonio_santos, beatriz_ferreira, bruno_oliveira, clara, diogo_fernandes, eduarda_magno, francisco_cardoso, goiana, guilherme_santos, ines_gaspar, jose_martins, jose_sousa, joao_silva, joao_torre_pereira, luis_sousa, madalena, marco_vilas_boas, maria_rita_nogueira_lopes, martim_moniz, miguel_garrido, miguel_moita, nery, pedro_vidal, rita_cachaldora, rubem_neto, ruben_esteves, rui_silveira, solange, tomas_figueiredo_marques_palma, tomas_ramos, vitor_pires};
ACTIVITIES = {coffee_break_1, coffee_break_2, coffee_break_3, escape_room_1, escape_room_2, escape_room_3, escape_room_4, escape_room_5, escape_room_6, escape_room_7, panel_pi, talk_chess, talk_design_ai, talk_haskell, talk_visual_design, workshop_github_actions, workshop_react_next_1, workshop_react_next_2};
SKILLS = {github_actions, next, operations, program, react, teaching};

available = [| true, true, false, true, true, true, false, false, false, false, false, false, true, false, true, true, true, true |
    false, false, false, false, false, false, false, false, false, false, false, false, false, false, false, true, true, true |
    true, true, false, true, true, true, true, true, true, true, false, false, true, false, false, false, false, false |
    true, true, true, true, true, true, true, true, true, true, true, true, true, true, true, true, true, true |
    true, true, true, true, true, true, false, false, false, false, true, false, false, true, false, false, true, true |
    false, false, false, true, true, true, true, true, true, true, true, false, true, true, true, true, true, false |
    true, true, true, true, true, true, true, true, true, true, false, false, false, false, false, false, false, false |
    false, false, false, true, true, true, true, true, true, true, true, false, true, true, true, true, true, true |
    false, false, false, true, true, true, true, true, true, true, false, false, true, false, false, true, true, true |
    false, false, false, false, false, false, true, true, true, true, true, true, true, true, true, true, false, false |
    true, true, true, false, false, false, false, false, false, false, false, false, false, false, false, true, false, false |
    false, false, false, false, false, false, false, false, false, false, false, false, false, false, false, false, false, false |
    true, true, true, false, false, false, false, true, false, false, false, false, true, false, false, true, false, true |
    false, false, false, false, false, false, false, false, false, false, false, false, false, false, false, true, false, false |
    false, false, false, false, false, false, false, false, false, false, false, false, false, false, false, false, true, false |
    false, false, false, false, false, false, true, true, true, true, true, true, true, true, true, true, false, false |
    false, false, false, true, true, true, true, true, true, true, false, false, false, false, true, true, true, true |
    false, false, false, false, false, false, false, false, false, false, true, false, true, true, true, true, false, false |
    true, true, true, false, false, false, false, false, false, false, true, false, false, false, false, false, true, false |
    true, true, true, true, true, true, true, true, true, true, true, false, false, false, false, false, false, false |
    false, false, false, false, false, false, false, false, false, false, false, false, false, false, false, false, false, false |
    false, false, false, false, false, false, true, true, true, true, true, true, true, true, true, true, false, false |
    true, true, true, false, false, false, true, true, true, true, true, false, false, true, true, true, false, false |
    true, true, true, true, true, true, false, false, false, false, false, false, true, false, false, true, true, true |
    true, true, true, true, true, true, true, true, true, true, true, true, true, true, true, true, true, true |
    true, true, true, true, true, true, true, true, true, true, true, false, false, false, false, false, false, false |
    false, false, false, false, false, false, false, false, false, false, false, false, true, false, false, true, true, true |
    false, false, false, false, false, false, false, false, false, false, false, false, false, false, false, false, false, false |
    false, false, false, false, false, false, true, true, true, true, true, false, true, true, true, true, false, false |
    false, false, false, false, false, false, false, false, false, false, false, false, true, false, false, true, true, true |
    false, false, false, true, true, true, true, true, true, true, false, true, true, false, true, true, false, false |
    false, false, false, false, false, false, true, true, true, true, false, false, false, false, true, false, false, false |];
minStaff = [3, 3, 3, 2, 2, 2, 2, 2, 2, 2, 1, 1, 1, 1, 1, 2, 2, 2];
preference = [| 0.0, 0.0, 0.0, 3.0, 3.0, 3.0, 3.0, 3.0, 3.0, 3.0, 0.0, 3.0, 1.0, 4.0, 5.0, 2.0, 1.0, 1.0 |
    0.0, 0.0, 0.0, 3.0, 3.0, 3.0, 3.0, 3.0, 3.0, 3.0, 5.0, 4.0, 2.0, 0.0, 2.0, 2.0, 0.0, 0.0 |
    4.0, 4.0, 4.0, 4.0, 4.0, 4.0, 4.0, 4.0, 4.0, 4.0, 5.0, 4.0, 0.0, 3.0, 1.0, 2.0, 2.0, 2.0 |
    3.0, 3.0, 3.0, 2.0, 2.0, 2.0, 2.0, 2.0, 2.0, 2.0, 2.0, 0.0, 3.0, 1.0, 1.0, 4.0, 3.0, 3.0 |
    5.0, 5.0, 5.0, 1.0, 1.0, 1.0, 1.0, 1.0, 1.0, 1.0, 2.0, 3.0, 1.0, 0.0, 2.0, 3.0, 1.0, 1.0 |
    0.0, 0.0, 0.0, 0.0, 0.0, 0.0, 0.0, 0.0, 0.0, 0.0, 0.0, 1.0, 0.0, 0.0, 5.0, 0.0, 0.0, 0.0 |
    0.0, 0.0, 0.0, 4.0, 4.0, 4.0, 4.0, 4.0, 4.0, 4.0, 5.0, 0.0, 1.0, 2.0, 4.0, 2.0, 0.0, 0.0 |
    3.0, 3.0, 3.0, 1.0, 1.0, 1.0, 1.0, 1.0, 1.0, 1.0, 1.0, 2.0, 4.0, 1.0, 5.0, 3.0, 1.0, 1.0 |
    5.0, 5.0, 5.0, 3.0, 3.0, 3.0, 3.0, 3.0, 3.0, 3.0, 0.0, 4.0, 3.0, 3.0, 5.0, 1.0, 2.0, 2.0 |
    1.0, 1.0, 1.0, 0.0, 0.0, 0.0, 0.0, 0.0, 0.0, 0.0, 4.0, 3.0, 1.0, 3.0, 1.0, 2.0, 0.0, 0.0 |
    5.0, 5.0, 5.0, 2.0, 2.0, 2.0, 2.0, 2.0, 2.0, 2.0, 2.0, 0.0, 3.0, 4.0, 1.0, 3.0, 1.0, 1.0 |
    1.0, 1.0, 1.0, 4.0, 4.0, 4.0, 4.0, 4.0, 4.0, 4.0, 2.0, 2.0, 5.0, 1.0, 3.0, 2.0, 1.0, 1.0 |
    0.0, 0.0, 0.0, 1.0, 1.0, 1.0, 1.0, 1.0, 1.0, 1.0, 0.0, 0.0, 2.0, 2.0, 4.0, 3.0, 4.0, 4.0 |
    0.0, 0.0, 0.0, 0.0, 0.0, 0.0, 0.0, 0.0, 0.0, 0.0, 0.0, 0.0, 3.0, 5.0, 0.0, 0.0, 0.0, 0.0 |
    5.0, 5.0, 5.0, 3.0, 3.0, 3.0, 3.0, 3.0, 3.0, 3.0, 1.0, 4.0, 5.0, 3.0, 3.0, 4.0, 5.0, 5.0 |
    2.0, 2.0, 2.0, 1.0, 1.0, 1.0, 1.0, 1.0, 1.0, 1.0, 1.0, 0.0, 2.0, 3.0, 3.0, 3.0, 4.0, 4.0 |
    1.0, 1.0, 1.0, 4.0, 4.0, 4.0, 4.0, 4.0, 4.0, 4.0, 3.0, 0.0, 5.0, 2.0, 5.0, 1.0, 3.0, 3.0 |
    1.0, 1.0, 1.0, 2.0, 2.0, 2.0, 2.0, 2.0, 2.0, 2.0, 3.0, 1.0, 2.0, 3.0, 4.0, 1.0, 3.0, 3.0 |
    5.0, 5.0, 5.0, 5.0, 5.0, 5.0, 5.0, 5.0, 5.0, 5.0, 5.0, 5.0, 5.0, 5.0, 5.0, 5.0, 5.0, 5.0 |
    0.0, 0.0, 0.0, 1.0, 1.0, 1.0, 1.0, 1.0, 1.0, 1.0, 2.0, 5.0, 3.0, 2.0, 3.0, 3.0, 0.0, 0.0 |
    3.0, 3.0, 3.0, 2.0, 2.0, 2.0, 2.0, 2.0, 2.0, 2.0, 2.0, 4.0, 3.0, 5.0, 4.0, 1.0, 0.0, 0.0 |
    4.0, 4.0, 4.0, 4.0, 4.0, 4.0, 4.0, 4.0, 4.0, 4.0, 0.0, 4.0, 5.0, 1.0, 2.0, 1.0, 1.0, 1.0 |
    4.0, 4.0, 4.0, 2.0, 2.0, 2.0, 2.0, 2.0, 2.0, 2.0, 4.0, 3.0, 2.0, 2.0, 2.0, 1.0, 3.0, 3.0 |
    3.0, 3.0, 3.0, 4.0, 4.0, 4.0, 4.0, 4.0, 4.0, 4.0, 2.0, 0.0, 1.0, 5.0, 1.0, 1.0, 3.0, 3.0 |
    0.0, 0.0, 0.0, 0.0, 0.0, 0.0, 0.0, 0.0, 0.0, 0.0, 0.0, 0.0, 0.0, 0.0, 0.0, 0.0, 0.0, 0.0 |
    2.0, 2.0, 2.0, 0.0, 0.0, 0.0, 0.0, 0.0, 0.0, 0.0, 5.0, 1.0, 4.0, 3.0, 4.0, 3.0, 1.0, 1.0 |
    3.0, 3.0, 3.0, 1.0, 1.0, 1.0, 1.0, 1.0, 1.0, 1.0, 5.0, 0.0, 0.0, 1.0, 4.0, 2.0, 0.0, 0.0 |
    5.0, 5.0, 5.0, 5.0, 5.0, 5.0, 5.0, 5.0, 5.0, 5.0, 5.0, 5.0, 5.0, 5.0, 5.0, 5.0, 5.0, 5.0 |
    3.0, 3.0, 3.0, 1.0, 1.0, 1.0, 1.0, 1.0, 1.0, 1.0, 1.0, 0.0, 2.0, 1.0, 2.0, 3.0, 1.0, 1.0 |
    2.0, 2.0, 2.0, 1.0, 1.0, 1.0, 1.0, 1.0, 1.0, 1.0, 1.0, 2.0, 3.0, 0.0, 4.0, 3.0, 0.0, 0.0 |
    4.0, 4.0, 4.0, 2.0, 2.0, 2.0, 2.0, 2.0, 2.0, 2.0, 4.0, 2.0, 3.0, 4.0, 2.0, 2.0, 1.0, 1.0 |
    4.0, 4.0, 4.0, 4.0, 4.0, 4.0, 4.0, 4.0, 4.0, 4.0, 0.0, 5.0, 2.0, 2.0, 3.0, 2.0, 1.0, 1.0 |];
staffSkills = [| false, true, true, true, false, true |
    false, true, true, false, false, true |
    true, true, false, true, false, false |
    true, false, true, false, false, true |
    true, true, true, true, true, true |
    false, true, false, false, false, false |
    true, true, true, false, true, false |
    false, true, false, true, false, true |
    true, true, true, true, true, true |
    false, false, true, true, true, true |
    false, false, true, true, false, true |
    true, false, true, false, true, true |
    true, true, false, true, true, false |
    true, false, false, false, false, true |
    true, false, true, true, false, false |
    true, true, true, false, false, false |
    true, true, true, false, true, false |
    false, false, false, false, false, true |
    true, true, true, true, true, true |
    false, false, true, false, true, false |
    false, false, true, false, false, true |
    true, true, true, true, true, false |
    false, false, false, true, true, false |
    false, true, true, true, false, false |
    true, true, true, true, true, true |
    true, false, false, true, false, true |
    true, false, true, true, true, false |
    false, true, true, true, true, false |
    true, true, true, false, true, false |
    true, true, true, true, false, false |
    false, false, true, true, true, false |
    false, true, true, false, false, false |];
activitySkills = [| false, false, true, false, false, false |
    false, false, true, false, false, false |
    false, false, true, false, false, false |
    false, false, false, true, false, false |
    false, false, false, true, false, false |
    false, false, false, true, false, false |
    false, false, false, true, false, false |
    false, false, false, true, false, false |
    false, false, false, true, false, false |
    false, false, false, true, false, false |
    false, false, false, true, false, false |
    false, false, false, true, false, false |
    false, false, false, true, false, false |
    false, false, false, true, false, false |
    false, false, false, true, false, false |
    true, false, false, false, false, true |
    false, true, false, true, true, true |
    false, true, false, true, true, true |];
experience = [3, 3, 1, 3, 1, 5, 4, 1, 3, 4, 3, 2, 2, 5, 4, 4, 4, 2, 5, 2, 2, 3, 2, 4, 5, 1, 2, 3, 3, 2, 2, 2];
start = [66, 162, 258, 52, 68, 71, 148, 151, 154, 157, 164, 254, 262, 168, 154, 248, 40, 58];
duration = [2, 2, 2, 3, 3, 3, 3, 3, 3, 3, 4, 3, 4, 2, 4, 6, 8, 8];

w1 = 0.06;
w2 = 0.16;
w3 = 0.05;
w4 = 0.25;
